
Gurobi 9.5.2 (mac64[rosetta2], gurobi_cl) logging started Tue Sep 13 11:05:04 2022

Set parameter Username
Set parameter LogFile to value "gurobi.log"
Academic license - for non-commercial use only - expires 2023-08-19
Using license file /Users/sanjanatule/gurobi.lic

Gurobi 9.5.2 (mac64[rosetta2], gurobi_cl) logging started Tue Sep 13 11:05:27 2022

Set parameter Username
Set parameter LogFile to value "gurobi.log"
Academic license - for non-commercial use only - expires 2023-08-19
Using license file /Users/sanjanatule/gurobi.lic
